24 184
7 79
2 185
85 26
8 180
60 25
26 21
13 127
1 106
26 92
28 83
91 22
6 4
26 20
11 191
7 141
24 54
51 76
15 70
40 126
4 84
5 146
21 14
85 39
4 92
4 147
14 74
42 30
11 38
23 14
31 73
18 25
27 43
44 61
69 47
13 163
31 64
14 156
100 21
2 177
17 54
42 22
23 117
17 100
59 98
99 41
74 16
7 92
14 179
32 146
